NAME: binpacking2d-02.bp2d
COMMENT: gcut2
NB_ITEMS: 20
BIN_WIDTH: 250
BIN_HEIGHT: 250

ITEMS [id width height]:
1 120 133
2 135 186
3 86 75
4 103 73
5 66 85
6 135 97
7 91 175
8 131 176
9 71 176
10 153 72
11 87 148
12 168 107
13 118 90
14 140 109
15 132 159
16 152 93
17 135 68
18 121 158
19 68 94
20 155 76